# Polymerization script for TMC carbon to MPD nitrogen and hydroxide to TMC

# System
units            real
atom_style       full
dimension        3
newton           off
boundary         p p p

# Styles
pair_style       lj/charmm/coul/long 7.0 9.0
pair_modify      shift no mix sixthpower
kspace_style     pppm 1.0e-4
kspace_modify    diff ad
bond_style       harmonic
angle_style      harmonic
dihedral_style   charmm
improper_style   harmonic
special_bonds    charmm

# Data file input
read_data        data.lmps

# Settings
dielectric       1.0
neighbor         2.0 bin
neigh_modify     delay 0 every 1 check yes
timestep         1.0
run_style        verlet

# Minimization Step
min_style        sd
minimize         1.0e-3 1.0e-3 1000 100000
min_style        cg
min_modify       line quadratic
minimize         1.0e-4 1.0e-4 1000 100000

velocity all create 300.0 4928459 dist gaussian

molecule mol1 molecules/MPD_TMC_prerxn.mol
molecule mol2 molecules/MPD_TMC_postrxn.mol
molecule mol3 molecules/TMC_OH_prerxn.mol
molecule mol4 molecules/TMC_OH_postrxn.mol

fix myrxn all bond/react stabilization yes statted_grp .03 &
  react rxn1 all 1 0.0 4.5 mol1 mol2 molecules/MPDTMC_rxnmap.in &
  react rxn2 all 1 0.0 4.5 mol3 mol4 molecules/TMCOH_rxnmap.in

fix 1 statted_grp_REACT nvt temp 300 300 100
fix 4 bond_react_MASTER_group temp/rescale 1 300 300 10 1

thermo 1000000
thermo_style custom step temp press density f_myrxn[1] f_myrxn[2]

run           500
reset_ids
write_data    polym5ns.lmps
quit
thermo 100000
variable bonds_made equal f_myrxn[1]
label loop
variable a loop 1
run 1
print "Current bonds formed = ${bonds_made}"
if "${bonds_made} > 565" then "jump SELF break"
next a
jump SELF loop
label break
print "ALL DONE: Total bonds formed = ${bonds_made}"

# Data file output
write_data       polym.lmps
