# General 
units            real
atom_style       full
dimension        3
newton           off
boundary         p p p


# Styles
pair_style       lj/charmm/coul/long 10.0 12.0
pair_modify      shift no mix sixthpower
kspace_style     pppm 1.0e-4
kspace_modify    diff ad 
bond_style       harmonic
angle_style      harmonic
dihedral_style   charmm
improper_style   harmonic
special_bonds    charmm

# System definition
read_data clipped_domain.lmps

dielectric 1.0
neighbor 4.0 bin
neigh_modify delay 0 every 1 check yes one 4000
timestep 2.0
run_style verlet

# Set Graphene lattice constant variable for use as pistons and backing layer
variable GRAPHENE_LATTICE_CONST equal 2.46

# Set lattice constant for use in packing waters into feed/permeate
lattice fcc 3.9
variable FinMD_to_FinN equal 6.94768717535204e-11
variable ANG_to_M equal 1e-10
variable ATM_to_nm2 equal 101325

if "${TYPE} == 0" then &
  "variable OPENING_AREA equal 176.84*${SIZE}" &
  "print 'SLIT AREA CALCULATED'" &
elif "${TYPE} == 1" &
  "variable OPENING_AREA equal PI*${SIZE}^2" &
  "print 'TUBE AREA CALCULATED'"

group WATER type 15 16
group GRAPH type 17

fix setForceMinimize GRAPH setforce 0 0 0
minimize         0 0 100000 1000000
min_style sd
minimize	 0 0 100000 1000000
min_style cg     
minimize         1.0e-8 1.0e-8 20000 1000000
min_style sd
minimize         1.0e-8 1.0e-8 20000 1000000

unfix setForceMinimize

variable fieldForce equal 1*${ATM_to_nm2}*${OPENING_AREA}*${ANG_to_M}*${ANG_to_M}/${FinMD_to_FinN}
fix waterGo WATER addforce 0 0 v_fieldForce
#Collect sufficient data for morphological analysis
compute        peratomstressvol WATER stress/atom NULL 
compute	       peratomstressvolke WATER stress/atom NULL ke 
compute        peratomstressvolkspace WATER stress/atom NULL kspace
compute        peratomstressvolfix WATER stress/atom NULL fix 
compute        peratomvol WATER voronoi/atom

variable       peratompress         atom (c_peratomstressvol[1]+c_peratomstressvol[2]+c_peratomstressvol[3])
variable       peratompresske       atom (c_peratomstressvolke[1]+c_peratomstressvolke[2]+c_peratomstressvolke[3])
variable       peratompresskspace   atom (c_peratomstressvolkspace[1]+c_peratomstressvolkspace[2]+c_peratomstressvolkspace[3])
variable       peratompressfix      atom (c_peratomstressvolfix[1]+c_peratomstressvolfix[2]+c_peratomstressvolfix[3])

dump waterdata WATER custom/gz 100000 hydr/water/pressuredata.*.gz id mol type mass q x y z vx vy vz v_peratompress v_peratompresske v_peratompresskspace v_peratompressfix c_peratomstressvol[1] c_peratomstressvol[2] c_peratomstressvol[3] c_peratomstressvolke[1] c_peratomstressvolke[2] c_peratomstressvolke[3] c_peratomstressvolkspace[1] c_peratomstressvolkspace[2] c_peratomstressvolkspace[3] c_peratomstressvolfix[1] c_peratomstressvolfix[2] c_peratomstressvolfix[3] c_peratomvol[1]
dump_modify waterdata sort 2

# Run hydration experiment
restart 100000 hydr/restarts/restart.*
neigh_modify exclude type 17 17
fix FXSHAKE WATER shake 0.0001 10 0 b 17 a 22 t 5 8 14
fix 1 WATER nvt temp 300 300 200
thermo 1000
timestep 2.0
run 25000000
unfix 1

