# General 
units            real
atom_style       full
dimension        3
newton           off
boundary         p p p

# Styles
pair_style       lj/charmm/coul/long 10.0 12.0
pair_modify      shift no mix arithmetic
kspace_style     pppm 1.0e-4
kspace_modify    diff ad
bond_style       harmonic
angle_style      harmonic
dihedral_style   charmm
improper_style   harmonic
special_bonds    charmm

# System definition
read_data ../../molecules/MPD_converted.lmps extra/bond/per/atom 1 extra/angle/per/atom 1 extra/dihedral/per/atom 1 extra/improper/per/atom 1

dielectric 1.0
neighbor 4.0 bin
neigh_modify delay 0 every 1 check yes one 4000
timestep 2.0
run_style verlet

region bawks block  INF INF INF INF INF INF units box
delete_atoms region bawks
change_box all x final 0 90 y final 0 90 z final 0 180 units box
region bawks delete
lattice fcc 8



variable NUMATOMS1 equal 400*21+600*16
variable NUMATOMS2 equal 400*21+600*16+1600*3
variable NUMTMA equal 400
variable NUMH2O equal 1600
molecule mol1 ../../molecules/MPD.mol
molecule mol2 ../../molecules/TMA.mol
molecule mol3 ../../molecules/tip3p.mol
create_atoms 0 box subset 600 $(12*v_rand) mol mol1 322

group MPDs union all

label packloop1 
variable p loop 1000

create_atoms 0 box subset ${NUMTMA} $(11*v_p*v_rand) mol mol2 322
group TMAs subtract all MPDs
delete_atoms overlap 1.01 TMAs all mol yes
variable NUMTMA equal (${NUMATOMS1}-$(atoms))/21
print ${NUMTMA}
reset_atom_ids
run 0
if "$(atoms) == ${NUMATOMS1}" then "jump SELF packloop2"
next p
jump SELF packloop1

label packloop2
variable p2 loop 1000

create_atoms 0 box subset ${NUMH2O} $(10*v_p2*v_rand) mol mol3 322

group H2Os subtract all MPDs TMAs
delete_atoms overlap 1.01 H2Os all mol yes
variable NUMH2O equal (${NUMATOMS2}-$(atoms))/3
print ${NUMH2O}
reset_atom_ids
run 0
if "$(atoms) == ${NUMATOMS2}" then "jump SELF packbreak"
next p2
jump SELF packloop2

label packbreak
write_data pre_run.lmps
thermo 1000
minimize         1.0e-8 1.0e-8 1000 100000
write_data pre_run.lmps
thermo_style custom step temp press density
thermo 1000
dump systemdata all custom/gz 1000 dumps/dump.*.gz id mol type mass q x y z vx vy vz
fix 1 all npt temp 300 300 200 iso 100.0 100.0 200
fix FXSHAKE all rattle 0.0001 20 5000 b 17 a 22 t 5 8
run 100000
unfix 1
unfix FXSHAKE
fix 1 all npt temp 300 300 200 iso 1000.0 1000.0 200
fix FXSHAKE all rattle 0.0001 20 5000 b 17 a 22 t 5 8
run 100000
unfix 1
unfix FXSHAKE
write_data pre_replicate.lmps
replicate 1 3 3
variable vxlen equal $(xhi-xlo)
variable vylen equal $(yhi-ylo)
variable vzlen equal $(zhi-zlo)

region rDelete block INF INF $(ylo+v_vylen/3) $(yhi-v_vylen/3) $(zlo+v_vzlen/3) $(zhi-v_vzlen/3) side out units box
group gDelete region rDelete
group gDelete include molecule
delete_atoms group gDelete
reset_atom_ids
print -$(v_vylen/2)
#change_box all y delta 66.5 -66.5 units box
#variable vylen equal $(yhi-ylo)
#displace_atoms all move 0 -$(v_vylen/2) 0 units box
write_data displace_ready.lmps
