# General
units            real
atom_style       full
dimension        3
newton           off
boundary         p p p


# Styles
pair_style       lj/charmm/coul/long 7.0 9.0
pair_modify      shift no mix sixthpower
kspace_style     pppm 1.0e-4
kspace_modify    diff ad
bond_style       harmonic
angle_style      harmonic
dihedral_style   charmm
improper_style   harmonic
special_bonds    charmm



# System definition
read_data poly/pre_equil_polymer.lmps

group EXCESSOHCL type 11 13 18
delete_atoms group EXCESSOHCL bond yes
reset_atom_ids 

# Settings
dielectric 1.0
neighbor 2.0 bin
neigh_modify delay 0 every 1 check yes
timestep 1.0
run_style verlet

fix FXSHAKE all shake 0.0001 10 0 b 17 a 22 t 5 8 14

fix 1 all npt temp 300 300 100 iso 1 1 100
velocity all scale 300
thermo 1000
run 100000
print "Final Equilibration"
unfix 1

write_data poly/equil_polymer.lmps
