# General 
units            real
atom_style       full
dimension        3
newton           off
boundary         p p p

# Styles
pair_style       lj/charmm/coul/long 10.0 12.0
pair_modify      shift no mix arithmetic
kspace_style     pppm 1.0e-4
kspace_modify    diff ad
bond_style       harmonic
angle_style      harmonic
dihedral_style   charmm
improper_style   harmonic
special_bonds    charmm

read_restart perm/restarts/restart.178420000
dielectric 1.0
neighbor 4.0 bin
neigh_modify delay 0 every 1 check yes one 4000
timestep 2.0
run_style verlet
run 0

region notsampled block 77.5 97.5 77.5 97.5 -37.5 -17.5 units box side out
group deletenotsampled region notsampled
delete_atoms group deletenotsampled
change_box all x final 77.5 97.5 y final 77.5 97.5 z final -37.5 -17.5
write_dump SOLID custom/gz membrane.gz id mol type mass q x y z