# General MUST DEFINE VARIABLES mult AND rand USING THE -v FLAG IN COMMAND LINE CALL TO LMPS
units            real
atom_style       full
dimension        3
newton           on
boundary         p p p


# Styles
pair_style       lj/cut/tip4p/long 1 2 1 1 0.10527 12.2152 12.0
pair_modify      shift no mix arithmetic
kspace_style     pppm/tip4p 1.0e-4
kspace_modify    diff ad
kspace_modify slab 3.0
bond_style       harmonic
angle_style      harmonic

#dihedral_style   charmm
#improper_style   harmonic
#special_bonds    charmm

# System definition
read_restart restarts/restart.*
variable PISTON_AREA equal  (xhi-xlo)*(yhi-ylo)
variable FinMD_to_FinN equal 6.94768717535204e-11
variable ATM_to_nm2 equal 101325
variable ANG_to_M equal 1e-10

dielectric 1.0
neighbor 4.0 bin
neigh_modify delay 0 every 1 check yes one 4000
timestep 2.0
run_style verlet

group graphene type 3
group WATER type 1 2

variable APPL_PRESS_FEED equal 1*${ATM_to_nm2}/count(LOzwall)
variable APPL_PRESS_PERM equal 1*${ATM_to_nm2}/count(HIzwall)

variable pos_HYDRATE_FORCE equal ${PISTON_AREA}*${ANG_to_M}*${ANG_to_M}*${APPL_PRESS_FEED}/${FinMD_to_FinN}
variable neg_HYDRATE_FORCE equal -${PISTON_AREA}*${ANG_to_M}*${ANG_to_M}*${APPL_PRESS_PERM}/${FinMD_to_FinN}

fix FEEDFORCEset LOzwall setforce  0.0 0.0 NULL
fix PERMFORCEset HIzwall setforce  0.0 0.0 NULL

fix FEEDFORCE LOzwall aveforce  NULL NULL v_pos_HYDRATE_FORCE
fix PERMFORCE HIzwall aveforce  NULL NULL v_neg_HYDRATE_FORCE

compute LOWALLcom LOzwall com
compute HIWALLcom HIzwall com

#Collect sufficient data for morphological analysis
compute        peratomstressvol all stress/atom NULL 
compute        peratomvol all voronoi/atom

variable       peratompress         atom (c_peratomstressvol[1]+c_peratomstressvol[2]+c_peratomstressvol[3])
compute        totalpressure WATER reduce sum c_peratomstressvol[1] c_peratomstressvol[2] c_peratomstressvol[3]
compute        peratommass all property/atom mass
compute        totalmass WATER reduce sum c_peratommass
compute        totalvol WATER reduce sum c_peratomvol[1]

variable actualdensity equal c_totalmass*(1e8)^3/(6.022e23*c_totalvol)
variable press equal -(c_totalpressure[1]+c_totalpressure[2]+c_totalpressure[3])/(3*c_totalvol)
dump waterdata all custom/gz 5000 pressure/pressuredata.*.gz id mol type mass q x y z v_peratompress c_peratomvol[1]
dump_modify waterdata sort 2
restart 5000 restarts/restart.*

# Run hydration experiment
write_data test.lmps


thermo 5000
fix 1water all nve 
run 1
neigh_modify exclude type 3 3
fix 2 WATER temp/berendsen 300.0 300.0 200 

thermo_style custom step temp c_2_temp press v_press v_actualdensity c_totalvol vol
fix FXSHAKE WATER shake 0.0001 10 0 b 1 a 1 
run 100000
run 10000000