# General MUST DEFINE VARIABLES mult AND rand USING THE -v FLAG IN COMMAND LINE CALL TO LMPS
units            real
atom_style       full
dimension        3
newton           off
boundary         p p p


# Styles
pair_style       lj/charmm/coul/long 10.0 12.0
pair_modify      shift no mix sixthpower
kspace_style     pppm 1.0e-4
kspace_modify    diff ad
bond_style       harmonic
angle_style      harmonic
dihedral_style   charmm
improper_style   harmonic
special_bonds    charmm

# System definition
read_data poly/equil_polymer.lmps 

dielectric 1.0
neighbor 6.0 bin
neigh_modify delay 0 every 1 check yes one 10000
timestep 2.0
run_style verlet

# Set Graphene lattice constant variable for use as pistons and backing layer
variable GRAPHENE_LATTICE_CONST equal 2.46

# Set lattice constant for use in packing waters into feed/permeate
lattice fcc 4.3
variable FinMD_to_FinN equal 6.94768717535204e-11
variable ANG_to_M equal 1e-10
variable ATM_to_nm2 equal 101325
variable mult1d equal ${mult}^(1/3)
variable mult2d equal ${mult}^(2/3)
# Reset all coordinates to start at 0.0 for future data analysis

change_box all x delta -$(xlo) -$(xlo) y delta -$(ylo) -$(ylo) z delta -$(zlo) -$(zlo) units box
displace_atoms all move -$(xlo) -$(ylo) -$(zlo) units box

#velocity all create 300 $(123*v_rand)
timestep 10.0
minimize         1.0e-8 1.0e-8 1000 100000
timestep 1.0
fix 1 all nvt temp 300 300 100
run 5000
unfix 1
timestep 10.0
minimize         1.0e-8 1.0e-8 1000 100000
timestep 1.0
fix 1 all nvt temp 300 300 100
run 5000
unfix 1

# UNWRAP membrane
region membranebox block  $(xlo) $(xhi)  $(ylo) $(yhi)  $(zlo) $(zhi-2.0) side out units box
region membranewater block  $(xlo) $(xhi)  $(ylo) $(yhi)  $(zlo) $(zhi) side in units box
delete_atoms region membranebox bond yes
reset_atom_ids sort yes
region membranebox delete
region membranebox block  INF INF INF INF INF INF units box
group membrane region membranebox
region membranebox delete

# Set distance to ends of new box, and number of H2O add on each side
variable z_delta equal 75*${mult1d}
variable NUM_H20 equal 2800*${mult2d}
variable NUM_H20_ins equal v_NUM_H20
# Use slab modifier to accurately model interactions across periodic boundaries in the zdirection

change_box all z delta -${z_delta} ${z_delta} units box
change_box all boundary p p f
kspace_modify slab nozforce

#add walls to the end of the boxes just in case waters try to escape the new fixed boundaries

fix zwalls1 all wall/lj126 zlo EDGE 0.06844 3.40700 9 zhi EDGE 0.06844 3.40700 9 pbc yes
fix_modify zwalls1 energy yes
# Minimize cut membrane to drive out floating atoms created by unwrapping

timestep 10.0
minimize         1.0e-8 1.0e-8 1000 100000
#timestep 1.0
#fix 1 all nvt temp 300 300 100
#run 100
#unfix 1
timestep 10.0
minimize         1.0e-8 1.0e-8 1000 100000
#unfix zwalls

# Delete floating atoms
region membranebox block  $(xlo) $(xhi)  $(ylo) $(yhi)  $(zlo+v_z_delta) $(zhi-v_z_delta) side out units box
delete_atoms region membranebox bond yes
region membranebox delete
reset_atom_ids

#Define regions within which to randomly add water molecules
region FEED block INF INF INF INF $(zlo+15) $(zlo+v_z_delta-10) units box
region PERM block INF INF INF INF $(zhi-v_z_delta+10) $(zhi-15) units box

# Add water molecules to feed and permeate regions, minimize to move overlapping molecules
molecule mol1 ../../molecules/tip3p.mol
create_atoms 0 region membranewater subset ${NUM_H20_ins} $(565*v_mult*v_rand) mol mol1 $(231*v_mult*v_rand)
create_atoms 0 region FEED subset ${NUM_H20} $(521*v_mult*v_rand) mol mol1 $(322*v_mult*v_rand)
create_atoms 0 region PERM subset ${NUM_H20} $(512*v_mult*v_rand) mol mol1 $(632*v_mult*v_rand)

lattice hcp ${GRAPHENE_LATTICE_CONST}


group FEEDWATER region FEED
group PERMWATER region PERM
group MEMWATER1 region membranewater
group WATER type 15 16
group MEMWATER intersect MEMWATER1 WATER

delete_atoms overlap 1.6 MEMWATER all mol yes 

write_restart hydr/hydrate_init.restart
write_data hydr/hydrate_init.lmps
#quit

timestep 10.0
minimize         1.0e-8 1.0e-8 1000 100000

# Add 'polysulfone' backing layer to keep membrane in place 
variable PIN_LOCATION equal $(zhi-v_z_delta-5)
region PINlayer block INF INF INF INF ${PIN_LOCATION} $(v_GRAPHENE_LATTICE_CONST+v_PIN_LOCATION) units box

group PINplane1 type 1 2
group PINplane2 region PINlayer
group PINplane intersect PINplane1 PINplane2
group PINplane1 delete
group PINplane2 delete

fix tether PINplane spring/self 427.6 z


# Create 'graphene' pistons to constrain water molecules and simulate operation
region zwallLO block INF INF INF INF $(zlo) $((zlo)+v_GRAPHENE_LATTICE_CONST*.9) units box

create_atoms 17 region zwallLO 
group LOzwall1 type 17
group LOzwall2 region zwallLO
group LOzwall intersect LOzwall1 LOzwall2
group LOzwall1 delete
group LOzwall2 delete

region zwallHI block INF INF INF INF $((zhi)-v_GRAPHENE_LATTICE_CONST*.9) $(zhi) units box

create_atoms 17 region zwallHI
group HIzwall1 type 17
group HIzwall2 region zwallHI
group HIzwall intersect HIzwall1 HIzwall2
group HIzwall1 delete
group HIzwall2 delete

group zwalls union LOzwall HIzwall
group mobile subtract all zwalls

change_box all z delta -100 100 units box
unfix zwalls1
fix zwalls1 all wall/lj126 zlo EDGE 0.06844 3.40700 9 zhi EDGE 0.06844 3.40700 9 pbc yes
fix_modify zwalls1 energy yes

#Pressurize system with pistons



variable APPL_PRESS_FEED equal 3200*${ATM_to_nm2}/count(LOzwall)
variable APPL_PRESS_PERM equal 3200*${ATM_to_nm2}/count(HIzwall)
variable PISTON_AREA equal  ($(xhi)-$(xlo))*($(yhi)-$(ylo))
variable pos_HYDRATE_FORCE equal ${PISTON_AREA}*${ANG_to_M}*${ANG_to_M}*${APPL_PRESS_FEED}/${FinMD_to_FinN}
variable neg_HYDRATE_FORCE equal -${PISTON_AREA}*${ANG_to_M}*${ANG_to_M}*${APPL_PRESS_PERM}/${FinMD_to_FinN}
fix FEEDPISTON LOzwall rigid single torque * off off off force * off off on 
fix PERMPISTON HIzwall rigid single torque * off off off force * off off on 

fix FEEDFORCE LOzwall addforce  0.0 0.0 $(v_pos_HYDRATE_FORCE)
fix PERMFORCE HIzwall addforce  0.0 0.0 $(v_neg_HYDRATE_FORCE)

#Collect sufficient data for morphological analysis
compute        peratomstressvol WATER stress/atom NULL 
compute	       peratomstressvolke WATER stress/atom NULL ke 
compute        peratomstressvolkspace WATER stress/atom NULL kspace
compute        peratomstressvolfix WATER stress/atom NULL fix 
compute        peratomvol WATER voronoi/atom

variable       peratompress         atom (c_peratomstressvol[1]+c_peratomstressvol[2]+c_peratomstressvol[3])
variable       peratompresske       atom (c_peratomstressvolke[1]+c_peratomstressvolke[2]+c_peratomstressvolke[3])
variable       peratompresskspace   atom (c_peratomstressvolkspace[1]+c_peratomstressvolkspace[2]+c_peratomstressvolkspace[3])
variable       peratompressfix      atom (c_peratomstressvolfix[1]+c_peratomstressvolfix[2]+c_peratomstressvolfix[3])
variable       znew                 atom (z-(abs(xcm(LOzwall,z)-xcm(HIzwall,z))/2+xcm(LOzwall,z)))

dump waterdata WATER custom/gz 100000 hydr/water/pressuredata.*.gz id mol type mass q x y z v_znew vx vy vz v_peratompress v_peratompresske v_peratompresskspace v_peratompressfix c_peratomstressvol[1] c_peratomstressvol[2] c_peratomstressvol[3] c_peratomstressvolke[1] c_peratomstressvolke[2] c_peratomstressvolke[3] c_peratomstressvolkspace[1] c_peratomstressvolkspace[2] c_peratomstressvolkspace[3] c_peratomstressvolfix[1] c_peratomstressvolfix[2] c_peratomstressvolfix[3] c_peratomvol[1]
dump_modify waterdata sort 2
dump membranedata membrane custom/gz 100000 hydr/membrane/membranedata.*.gz id mol type mass q x y z v_znew
dump_modify membranedata sort 1
dump systemdata all custom/gz 1000 hydr/system/systemdata.*.gz id mol type mass q x y z v_znew
dump_modify systemdata sort 1

# Run hydration experiment
reset_atom_ids
write_data test.lmps
restart 5000 hydr/restarts/restart.*
neigh_modify exclude type 17 17
fix FXSHAKE mobile shake 0.0001 10 0 b 17 a 22 t 5 8 14
timestep 1.0
fix 1 mobile nvt temp 300 300 200
thermo 1000
run 15000
unfix FEEDFORCE
unfix PERMFORCE

# Set confining pressure to 1 ATM (2 ATM confining pressure of water at 300 K to overcome, i.e. 2 + 1 = 3)
variable APPL_PRESS_FEED equal 3200*${ATM_to_nm2}/count(LOzwall)
variable APPL_PRESS_PERM equal 3200*${ATM_to_nm2}/count(HIzwall)
variable pos_HYDRATE_FORCE equal ${PISTON_AREA}*${ANG_to_M}*${ANG_to_M}*${APPL_PRESS_FEED}/${FinMD_to_FinN}
variable neg_HYDRATE_FORCE equal -${PISTON_AREA}*${ANG_to_M}*${ANG_to_M}*${APPL_PRESS_PERM}/${FinMD_to_FinN}
fix FEEDFORCE LOzwall addforce  0.0 0.0 $(v_pos_HYDRATE_FORCE)
fix PERMFORCE HIzwall addforce  0.0 0.0  $(v_neg_HYDRATE_FORCE)
#fix LOzwallaveforce all print 100 "$(f_FEEDFORCE[1]),$(f_FEEDFORCE[2]),$(f_FEEDFORCE[3])" append lowforce2.csv
#fix HIzwallaveforce all print 100 "$(f_PERMFORCE[1]),$(f_PERMFORCE[2]),$(f_PERMFORCE[3])" append hiforce2.csv
dump_modify systemdata every 100000
restart 1000000 hydr/restarts/restart.*
run 25000000
unfix 1

