# General MUST DEFINE VARIABLES mult AND rand USING THE -v FLAG IN COMMAND LINE CALL TO LMPS
units            real
atom_style       full
dimension        3
newton           off
boundary         p p p


# Styles
pair_style       lj/charmm/coul/long 10.0 12.0
pair_modify      shift no mix arithmetic
kspace_style     pppm 1.0e-4
kspace_modify    diff ad
bond_style       harmonic
angle_style      harmonic
dihedral_style   charmm
improper_style   harmonic
special_bonds    charmm

# System definition
read_restart hydr_npt/restarts/restart.*

dielectric 1.0
neighbor 4.0 bin
neigh_modify delay 0 every 1 check yes one 4000
timestep 1.0
run_style verlet
# Set Graphene lattice constant variable for use as pistons and backing layer
variable GRAPHENE_LATTICE_CONST equal 3.824228199

# Set lattice constant for use in packing waters into feed/permeate
lattice fcc 4.3
variable FinMD_to_FinN equal 6.94768717535204e-11
variable ANG_to_M equal 1e-10
variable ATM_to_nm2 equal 101325
variable mult1d equal ${mult}^(1/3)
variable mult2d equal ${mult}^(2/3)
lattice fcc 4.882444444
minimize         0 0 10000 100000




#Collect sufficient data for morphological analysis
compute        peratomstressvol mobile stress/atom NULL 
compute        peratomvol mobile voronoi/atom

variable       peratompress         atom (c_peratomstressvol[1]+c_peratomstressvol[2]+c_peratomstressvol[3])


dump waterdata WATER custom/gz 200 hydr_npt/water/pressuredata.*.gz id mol type mass q x y z vx vy vz v_peratompress c_peratomvol[1]
dump_modify waterdata sort 2
dump membranedata membrane custom/gz 200 hydr_npt/membrane/membranedata.*.gz id mol type mass q x y z vx vy vz v_peratompress c_peratomvol[1]
dump_modify membranedata sort 1
dump systemdata all custom/gz 200 hydr_npt/system/systemdata.*.gz id mol type mass q x y z vx vy vz
dump_modify systemdata sort 1

restart 10000 hydr_npt/restarts/restart.*

thermo 5000
fix 1 all npt temp 300 300 100 iso 1.0 1.0 1000
fix FXSHAKE all rattle 0.0001 20 5000 b 17 a 22 23 t 5
run 10000000
unfix 1
