# General MUST DEFINE VARIABLES mult AND rand USING THE -v FLAG IN COMMAND LINE CALL TO LMPS
units            real
atom_style       full
dimension        3
newton           off
boundary         p p f


# Styles
pair_style       lj/charmm/coul/long 10.0 12.0
pair_modify      shift no mix arithmetic
kspace_style     pppm 1.0e-4
kspace_modify    diff ad 
bond_style       harmonic
angle_style      harmonic
dihedral_style   charmm
improper_style   harmonic
special_bonds    charmm

# System definition
read_restart hydr/restarts/restart.6750000
pair_coeff 15 15 0.155865 3.178
pair_coeff 16 16 0.00000 0.000000
bond_coeff 17 4.50000000e+02 1.011800000e+00
angle_coeff 22 5.50000000e+01 1.08150000e+02
angle_coeff 23 5.50000000e+01 1.08150000e+02
set type 15 charge -0.84844
set type 16 charge 0.42422 
set type 4 charge -0.592935896

dielectric 1.0
neighbor 4.0 bin
neigh_modify delay 0 every 1 check yes one 4000
timestep 1.0
run_style verlet
# Set Graphene lattice constant variable for use as pistons and backing layer
variable GRAPHENE_LATTICE_CONST equal 3.824228199

# Set lattice constant for use in packing waters into feed/permeate
lattice fcc 4.3
variable FinMD_to_FinN equal 6.94768717535204e-11
variable ANG_to_M equal 1e-10
variable ATM_to_nm2 equal 101325
variable mult1d equal ${mult}^(1/3)
variable mult2d equal ${mult}^(2/3)
molecule mol1 ../../molecules/tip3p.mol
lattice fcc 5.3


change_box all z final -220 220  units box
#Recenter systems based on difference between CoM of pistons and center of domain in z-direction
displace_atoms all move 0 0 $(-(abs(xcm(LOzwall,z)-xcm(HIzwall,z))/2+xcm(LOzwall,z))) units box

change_box all z final -150 150 units box
delete_atoms group LOzwall
delete_atoms group HIzwall
region WATERADD1 block INF INF INF INF -149 -130 units box
region WATERADD2 block INF INF INF INF 130 149 units box
create_atoms 0 region WATERADD1 mol mol1 322
create_atoms 0 region WATERADD2 mol mol1 322
change_box all boundary p p p
change_box all z final -155 155 units box
minimize         1.0e-8 1.0e-8 1000 100000
#Collect sufficient data for morphological analysis
compute        peratomstressvol mobile stress/atom NULL 
compute        peratomvol mobile voronoi/atom

variable       peratompress         atom (c_peratomstressvol[1]+c_peratomstressvol[2]+c_peratomstressvol[3])


dump waterdata WATER custom/gz 5000 hydr_npt/water/pressuredata.*.gz id mol type mass q x y z vx vy vz v_peratompress c_peratomvol[1]
dump_modify waterdata sort 2
dump membranedata membrane custom/gz 5000 hydr_npt/membrane/membranedata.*.gz id mol type mass q x y z vx vy vz v_peratompress c_peratomvol[1]
dump_modify membranedata sort 1
dump systemdata all custom/gz 5000 hydr_npt/system/systemdata.*.gz id mol type mass q x y z
dump_modify systemdata sort 1

restart 10000 hydr_npt/restarts/restart.*


group WATER type 15 16
group mobile union all
fix 1 all npt temp 300 300 200 z 1.0 1.0 2000
fix FXSHAKE mobile rattle 0.0001 10 5000 b 17 a 22 23 t 5 8
thermo 5000
timestep 1.0
write_data test.lmps
run 100000000
unfix 1 
