# General MUST DEFINE VARIABLES mult AND rand USING THE -v FLAG IN COMMAND LINE CALL TO LMPS
units            real
atom_style       full
dimension        3
newton           off
boundary         p p f


# Styles
pair_style       lj/charmm/coul/long 10.0 12.0
pair_modify      shift no mix sixthpower
kspace_style     pppm 1.0e-4
kspace_modify    diff ad slab nozforce
bond_style       harmonic
angle_style      harmonic
dihedral_style   charmm
improper_style   harmonic
special_bonds    charmm

# System definition
read_restart hydr/restarts/restart.11920000


dielectric 1.0
neighbor 4.0 bin
neigh_modify delay 0 every 1 check yes one 4000
comm_modify mode single cutoff 30
timestep 2.0
run_style verlet
pair_coeff 15 15 0.102 3.188 0.102 3.188
pair_coeff 16 16 0 0 0 0
# Set Graphene lattice constant variable for use as pistons and backing layer
variable GRAPHENE_LATTICE_CONST equal 2.46

# Set lattice constant for use in packing waters into feed/permeate
lattice fcc 4.3
variable FinMD_to_FinN equal 6.94768717535204e-11
variable ANG_to_M equal 1e-10
variable ATM_to_nm2 equal 101325
variable mult1d equal ${mult}^(1/3)
variable mult2d equal ${mult}^(2/3)
#run 0
#change_box all boundary p p f
#kspace_modify slab nozforce
change_box all z final -40 220  units box
#change_box all z final -90 270  units box
fix zwalls1 all wall/lj126 zlo EDGE 0.06844 3.40700 9 zhi EDGE 0.06844 3.40700 9 pbc yes
fix_modify zwalls1 energy yes

# Set distance to ends of new box, and number of H2O add on each side
variable z_delta equal 200*${mult1d}
variable NUM_H20 equal 3600*${mult2d}

# Use slab modifier to accurately model interactions across periodic boundaries in the zdirection
#kspace_modify slab 3.0
lattice hcp ${GRAPHENE_LATTICE_CONST}

#Pressurize system with pistons



variable APPL_PRESS_FEED equal 50*${ATM_to_nm2}/count(LOzwall)
variable APPL_PRESS_PERM equal 50*${ATM_to_nm2}/count(HIzwall)
variable PISTON_AREA equal  ($(xhi)-$(xlo))*($(yhi)-$(ylo))
variable pos_HYDRATE_FORCE equal ${PISTON_AREA}*${ANG_to_M}*${ANG_to_M}*${APPL_PRESS_FEED}/${FinMD_to_FinN}
variable neg_HYDRATE_FORCE equal -${PISTON_AREA}*${ANG_to_M}*${ANG_to_M}*${APPL_PRESS_PERM}/${FinMD_to_FinN}
fix FEEDPISTON LOzwall rigid single torque * off off off force * off off on 
fix PERMPISTON HIzwall rigid single torque * off off off force * off off on 

fix FEEDFORCE LOzwall addforce  0.0 0.0 v_pos_HYDRATE_FORCE
fix PERMFORCE HIzwall addforce  0.0 0.0 v_neg_HYDRATE_FORCE

#Collect sufficient data for morphological analysis
compute        peratomstressvol WATER stress/atom NULL 
compute	       peratomstressvolke WATER stress/atom NULL ke 
compute        peratomstressvolkspace WATER stress/atom NULL kspace
compute        peratomstressvolfix WATER stress/atom NULL fix 
compute        peratomvol WATER voronoi/atom

variable       peratompress         atom (c_peratomstressvol[1]+c_peratomstressvol[2]+c_peratomstressvol[3])
variable       peratompresske       atom (c_peratomstressvolke[1]+c_peratomstressvolke[2]+c_peratomstressvolke[3])
variable       peratompresskspace   atom (c_peratomstressvolkspace[1]+c_peratomstressvolkspace[2]+c_peratomstressvolkspace[3])
variable       peratompressfix      atom (c_peratomstressvolfix[1]+c_peratomstressvolfix[2]+c_peratomstressvolfix[3])
variable       znew                 atom (z-(abs(xcm(LOzwall,z)-xcm(HIzwall,z))/2+xcm(LOzwall,z)))

dump waterdata WATER custom/gz 10000 hydr/water/pressuredata.*.gz id mol type mass q x y z v_znew vx vy vz v_peratompress v_peratompresske v_peratompresskspace v_peratompressfix c_peratomstressvol[1] c_peratomstressvol[2] c_peratomstressvol[3] c_peratomstressvolke[1] c_peratomstressvolke[2] c_peratomstressvolke[3] c_peratomstressvolkspace[1] c_peratomstressvolkspace[2] c_peratomstressvolkspace[3] c_peratomstressvolfix[1] c_peratomstressvolfix[2] c_peratomstressvolfix[3] c_peratomvol[1]
dump_modify waterdata sort 2
dump membranedata membrane custom/gz 10000 hydr/membrane/membranedata.*.gz id mol type mass q x y z v_znew
dump_modify membranedata sort 1
dump systemdata all custom/gz 10000 hydr/system/systemdata.*.gz id mol type mass q x y z v_znew
dump_modify systemdata sort 1

# Run hydration experiment
fix balance1 all balance 0 1.0 shift z 10 1.1
#reset_atom_ids
restart 10000 hydr/restarts/restart.*
neigh_modify exclude type 17 17
#fix FXSHAKE mobile rattle 0.0001 20 0 a 4 9 10 12 19 21 22 25 b 2 9 10 15 16 17 t 5 8 13 14 15
fix 1 mobile nvt temp 300 300 200
fix FXSHAKE mobile rattle 0.0001 10 0 b 17 a 22 t 5 8 14
#fix FXSHAKE mobile shake 0.0001 10 0 b 17 a 22
thermo 100000
timestep 1
	
run 34000000
unfix 1 
write_data hydrated_data.lmps

