# General MUST DEFINE VARIABLES mult AND rand USING THE -v FLAG IN COMMAND LINE CALL TO LMPS
units            real
atom_style       full
dimension        3
newton           off
boundary         p p f


# Styles
pair_style       lj/charmm/coul/long 10.0 12.0
pair_modify      shift no mix arithmetic
kspace_style     pppm 1.0e-4
kspace_modify    diff ad slab nozforce
bond_style       harmonic
angle_style      harmonic
dihedral_style   charmm
improper_style   harmonic
special_bonds    charmm

# System definition
read_restart hydr/restarts/restart.11920000
pair_coeff 15 15 0.155865 3.178
pair_coeff 16 16 0.00000 0.000000
bond_coeff 17 4.50000000e+02 1.011800000e+00
angle_coeff 22 5.50000000e+01 1.08150000e+02
angle_coeff 23 5.50000000e+01 1.08150000e+02
set type 15 charge -0.84844
set type 16 charge 0.42422 
set type 4 charge -0.59451078

dielectric 1.0
neighbor 4.0 bin
neigh_modify delay 0 every 1 check yes one 4000
timestep 1.0
run_style verlet
# Set Graphene lattice constant variable for use as pistons and backing layer
variable GRAPHENE_LATTICE_CONST equal 3.824228199

# Set lattice constant for use in packing waters into feed/permeate
lattice fcc 4.3
variable FinMD_to_FinN equal 6.94768717535204e-11
variable ANG_to_M equal 1e-10
variable ATM_to_nm2 equal 101325
variable mult1d equal ${mult}^(1/3)
variable mult2d equal ${mult}^(2/3)

change_box all z final -40 220  units box

fix zwalls1 all wall/lj126 zlo EDGE 0.06844 3.40700 9 zhi EDGE 0.06844 3.40700 9 pbc yes
fix_modify zwalls1 energy yes

# Set distance to ends of new box, and number of H2O add on each side
variable z_delta equal 200*${mult1d}
variable NUM_H20 equal 3600*${mult2d}

# Use slab modifier to accurately model interactions across periodic boundaries in the zdirection
#kspace_modify slab 3.0
lattice hcp ${GRAPHENE_LATTICE_CONST}

#Pressurize system with pistons
variable APPL_PRESS_FEED equal 1*${ATM_to_nm2}/count(LOzwall)
variable APPL_PRESS_PERM equal 1*${ATM_to_nm2}/count(HIzwall)
variable PISTON_AREA equal  ($(xhi)-$(xlo))*($(yhi)-$(ylo))
variable pos_HYDRATE_FORCE equal ${PISTON_AREA}*${ANG_to_M}*${ANG_to_M}*${APPL_PRESS_FEED}/${FinMD_to_FinN}
variable neg_HYDRATE_FORCE equal -${PISTON_AREA}*${ANG_to_M}*${ANG_to_M}*${APPL_PRESS_PERM}/${FinMD_to_FinN}
fix FEEDPISTON LOzwall rigid single torque * off off off force * off off on 
fix PERMPISTON HIzwall rigid single torque * off off off force * off off on 

fix FEEDFORCE LOzwall addforce  0.0 0.0 v_pos_HYDRATE_FORCE
fix PERMFORCE HIzwall addforce  0.0 0.0 v_neg_HYDRATE_FORCE

#Collect sufficient data for morphological analysis
compute        peratomstressvol mobile stress/atom NULL 
compute        peratomvol mobile voronoi/atom

variable       peratompress         atom (c_peratomstressvol[1]+c_peratomstressvol[2]+c_peratomstressvol[3])


dump waterdata WATER custom/gz 5000 hydr/water/pressuredata.*.gz id mol type mass q x y z vx vy vz v_peratompress c_peratomvol[1]
dump_modify waterdata sort 2
dump membranedata membrane custom/gz 5000 hydr/membrane/membranedata.*.gz id mol type mass q x y z vx vy vz v_peratompress c_peratomvol[1]
dump_modify membranedata sort 1
dump systemdata all custom/gz 5000 hydr/system/systemdata.*.gz id mol type mass q x y z
dump_modify systemdata sort 1

# Run hydration experiment
reset_atom_ids

restart 10000 hydr/restarts/restart.*
neigh_modify exclude type 17 17

fix balance1 all balance 0 1.0 shift z 10 1.1
fix 1 mobile nve
fix WATETEMP WATER temp/berendsen 300.0 300.0 200.0
fix MEMBTEMP membrane temp/berendsen 300.0 300.0 200.0



fix FXSHAKE mobile rattle 0.0001 10 5000 b 17 a 22 23 t 5 8
thermo 5000
timestep 1.0
write_data test.lmps
run 100000000
unfix 1 


