# General 
units            real
atom_style       full
dimension        3
newton           off
boundary         p p p

# Styles
pair_style       lj/charmm/coul/long 10.0 12.0
pair_modify      shift no mix arithmetic
kspace_style     pppm 1.0e-4
kspace_modify    diff ad
bond_style       harmonic
angle_style      harmonic
dihedral_style   charmm
improper_style   harmonic
special_bonds    charmm

read_restart ../64x/03_90/hydr/restarts/restart.*

molecule tip3p ../molecules/tip3p.mol

run 0
dielectric 1.0
neighbor 4.0 bin
neigh_modify delay 0 every 1 check yes one 4000
timestep 1.0
run_style verlet

variable T equal 300
variable T_poly equal 358.15
variable overlap equal 1.4

delete_atoms group all

change_box all x final -10 10 y final -10 10 z final -20 30
region domain block INF INF INF INF INF INF

create_atoms ${atomID} single 0 0 0
set type ${atomID} charge ${atomCharge}

group PA_atoms region domain 

create_atoms 0 random 667 ${nRand} NULL mol tip3p ${nRand} overlap ${overlap}

group water_atoms subtract all PA_atoms

compute volume all voronoi/atom
compute stresscomponents all stress/atom NULL
compute poteng_short all pe/atom pair
compute poteng_bonded all pe/atom bond angle dihedral improper
compute poteng_long all pe/atom kspace
compute poteng_fix all pe/atom fix
compute kineng all ke/atom

variable stress atom (c_stresscomponents[1]+c_stresscomponents[2]+c_stresscomponents[3])
thermo 1000
thermo_style custom step temp press density etotal pe emol evdwl ecoul elong ke enthalpy

# create RDF and save to file
compute RDF all rdf 1000 ${atomID} 15
fix RDFFix all ave/time 1 1000 1000 c_RDF[*] file ${atomName}/all.rdf mode vector

## let it relax
write_data test.lmp

fix FXSHAKE all shake 0.0001 20 5000 b 17 a 22
fix 1 all npt temp 300 300 100 iso 1 1 1000 

run 50000
unfix 1
unfix FXSHAKE

#collect data for 5 ns

log ${atomName}/lammps.log
write_data ${atomName}/data.lmp
dump dumpPA PA_atoms custom 500 ${atomName}/pa_atom.trj id mol type xu yu zu vx vy vz v_stress c_volume[1] c_poteng_short c_poteng_bonded c_poteng_long c_poteng_fix c_kineng

fix FXSHAKE all shake 0.0001 20 5000 b 17 a 22
fix 1 all npt temp 300 300 100 iso 1 1 1000 

run 5000000
unfix 1
