# General MUST DEFINE VARIABLES mult AND rand USING THE -v FLAG IN COMMAND LINE CALL TO LMPS
units            real
atom_style       full
dimension        3
newton           on
boundary         p p f


# Styles
pair_style       lj/charmm/coul/long 10.0 12.0
pair_modify      shift no mix arithmetic
kspace_style     pppm 1.0e-4
kspace_modify    diff ad 
kspace_modify slab nozforce
bond_style       harmonic
angle_style      harmonic
dihedral_style   charmm
improper_style   harmonic
special_bonds    charmm

# System definition
read_restart perm/restarts/restart.*

dielectric 1.0
neighbor 4.0 bin
neigh_modify delay 0 every 1 check yes
timestep 2.0
run_style verlet

# Set Graphene lattice constant variable for use as pistons and backing layer
variable GRAPHENE_LATTICE_CONST equal 2.46
# Set lattice constant for use in packing waters into feed/permeate
lattice fcc 4.3
variable FinMD_to_FinN equal 6.94768717535204e-11
variable ANG_to_M equal 1e-10
variable ATM_to_nm2 equal 101325
variable mult1d equal ${mult}^(1/3)
variable mult2d equal ${mult}^(2/3)

## FROM INIT PERM RUN
#Recenter systems based on difference between CoM of pistons and center of domain in z-direction
#displace_atoms all move 0 0 $(-(abs(xcm(LOzwall,z)-xcm(HIzwall,z))/2+xcm(LOzwall,z))) units box

# Fix previously identified pins via a spring in the z direction only 

fix tether PINplane spring/self 427.6 

# REMOVE WHEN BOUNDARIES ARE STABLE

fix zwalls1 all wall/lj126 zlo EDGE 0.06844 3.40700 9 zhi EDGE 0.06844 3.40700 9
fix_modify zwalls1 energy yes

#Pressurize system with pistons
variable APPL_PRESS_FEED equal 150*${ATM_to_nm2}/count(LOzwall)
variable APPL_PRESS_PERM equal 50*${ATM_to_nm2}/count(HIzwall)
variable PISTON_AREA equal  ($(xhi)-$(xlo))*($(yhi)-$(ylo))
variable pos_HYDRATE_FORCE equal ${PISTON_AREA}*${ANG_to_M}*${ANG_to_M}*${APPL_PRESS_FEED}/${FinMD_to_FinN}
variable neg_HYDRATE_FORCE equal -${PISTON_AREA}*${ANG_to_M}*${ANG_to_M}*${APPL_PRESS_PERM}/${FinMD_to_FinN}
fix FEEDPISTON LOzwall rigid single torque * off off off force * off off on 
fix PERMPISTON HIzwall rigid single torque * off off off force * off off on 

fix FEEDFORCE LOzwall addforce  0.0 0.0 v_pos_HYDRATE_FORCE
fix PERMFORCE HIzwall addforce  0.0 0.0 v_neg_HYDRATE_FORCE

#Collect sufficient data for morphological analysis
fix balance1 all balance 0 1.0 shift z 10 1.1
compute        peratomstressvol mobile stress/atom NULL 
compute        peratomvol mobile voronoi/atom

variable       peratompress         atom (c_peratomstressvol[1]+c_peratomstressvol[2]+c_peratomstressvol[3])

dump waterdata WATER custom/gz 5000 perm/water/pressuredata.*.gz id mol type mass q x y z vx vy vz v_peratompress c_peratomvol[1]
dump_modify waterdata sort 2
dump membranedata membrane custom/gz 5000 perm/membrane/membranedata.*.gz id mol type mass q x y z vx vy vz v_peratompress c_peratomvol[1]
dump_modify membranedata sort 1
dump systemdata all custom/gz 5000 perm/system/systemdata.*.gz id mol type mass q x y z vx vy vz
dump_modify systemdata sort 1

# Run hydration experiment
#reset_atom_ids

restart 10000 hydr/restarts/restart.*
neigh_modify exclude type 17 17

fix balance1 all balance 0 1.0 shift z 10 1.1
fix 1 mobile nve
fix WATETEMP WATER temp/berendsen 300.0 300.0 200.0
fix MEMBTEMP membrane temp/berendsen 300.0 300.0 200.0



fix FXSHAKE mobile rattle 0.0001 10 5000 b 17 a 22 23 
thermo 5000
timestep 1.0
write_data test.lmps
run 100000000
unfix 1 


