# General 
units            real
atom_style       full
dimension        3
newton           off
boundary         p p p

# Styles
pair_style       lj/charmm/coul/long 10.0 12.0
pair_modify      shift no mix arithmetic
kspace_style     pppm 1.0e-4
kspace_modify    diff ad
bond_style       harmonic
angle_style      harmonic
dihedral_style   charmm
improper_style   harmonic
special_bonds    charmm

read_restart ${leastmost}_perm_v2/restarts/restart.*
dielectric 1.0
neighbor 4.0 bin
neigh_modify delay 0 every 1 check yes one 4000
timestep 2.0
run_style verlet
run 0

variable PISTON_AREA equal  (xhi-xlo)*(yhi-ylo)
variable FinMD_to_FinN equal 6.94768717535204e-11
variable ATM_to_nm2 equal 101325
variable ANG_to_M equal 1e-10

group waterO type 15

region FEED block INF INF INF INF INF -75
region GAP block INF INF INF INF -75 75
region PERM block INF INF INF INF 75 INF
group FEEDATOMS dynamic WATER region FEED every 1000
group GAPATOMS dynamic WATER region GAP every 1000
group PERMATOMS dynamic WATER region PERM every 1000

compute WaterCoord1 waterO coord/atom cutoff 3 group waterO

fix feedWcoord1 FEEDATOMS ave/histo 100 10 1000 0 20 20 c_WaterCoord1 mode vector ave one file coord/feedW1.txt
fix membWcoord1 GAPATOMS ave/histo 100 10 1000 0 20 20 c_WaterCoord1 mode vector ave one file coord/membW1.txt
fix permWcoord1 PERMATOMS ave/histo 100 10 1000 0 20 20 c_WaterCoord1 mode vector ave one file coord/permW1.txt

compute WaterCoord2 waterO coord/atom cutoff 5.5 group waterO

fix feedWcoord2 FEEDATOMS ave/histo 100 10 1000 0 40 40 c_WaterCoord2 mode vector ave one file coord/feedW2.txt
fix membWcoord2 GAPATOMS ave/histo 100 10 1000 0 40 40 c_WaterCoord2 mode vector ave one file coord/membW2.txt
fix permWcoord2 PERMATOMS ave/histo 100 10 1000 0 40 40 c_WaterCoord2 mode vector ave one file coord/permW2.txt


fix tether SOLID spring/self 100
variable APPL_PRESS_FEED equal ${FEEDP}*${ATM_to_nm2}/count(LOzwall)
variable APPL_PRESS_PERM equal 100*${ATM_to_nm2}/count(HIzwall)

variable pos_HYDRATE_FORCE equal ${PISTON_AREA}*${ANG_to_M}*${ANG_to_M}*${APPL_PRESS_FEED}/${FinMD_to_FinN}
variable neg_HYDRATE_FORCE equal -${PISTON_AREA}*${ANG_to_M}*${ANG_to_M}*${APPL_PRESS_PERM}/${FinMD_to_FinN}

fix FEEDFORCEset LOzwall setforce  0.0 0.0 NULL
fix PERMFORCEset HIzwall setforce  0.0 0.0 NULL

fix FEEDFORCE LOzwall aveforce  NULL NULL v_pos_HYDRATE_FORCE
fix PERMFORCE HIzwall aveforce  NULL NULL v_neg_HYDRATE_FORCE

compute        peratomstressvol all stress/atom NULL 
compute        peratomvol all voronoi/atom


variable       peratompress         atom (c_peratomstressvol[1]+c_peratomstressvol[2]+c_peratomstressvol[3])
compute        totalpressure WATER reduce sum c_peratomstressvol[1] c_peratomstressvol[2] c_peratomstressvol[3]
compute        peratommass all property/atom mass
compute        totalmass WATER reduce sum c_peratommass
compute        totalvol WATER reduce sum c_peratomvol[1]

variable actualdensity equal c_totalmass*(1e8)^3/(6.022e23*c_totalvol)
variable press equal -(c_totalpressure[1]+c_totalpressure[2]+c_totalpressure[3])/(3*c_totalvol)
dump waterdata WATER custom/gz 5000 ${leastmost}_perm_v2/pressure/pressuredata.*.gz id mol type mass q x y z xu yu zu vx vy vz v_peratompress c_peratomvol[1]
dump systemdata all custom/gz 500000 ${leastmost}_perm_v2/system/systemdata.*.gz id mol type mass q x y z vx vy vz v_peratompress c_peratomvol[1]
dump membranedata SOLID custom/gz 5000 ${leastmost}_perm_v2/membrane/membranedata.*.gz id mol type mass q x y z v_peratompress c_peratomvol[1]
dump_modify waterdata sort 2
dump_modify systemdata sort 2
restart 5000 ${leastmost}_perm_v2/restarts/restart.*



thermo 5000
fix 1 all nvt temp 300 300 200

thermo_style custom step temp press v_press v_actualdensity c_totalvol
fix FXSHAKE all rattle 0.0001 20 5000 b 17 a 22 t 5

run 10000000
unfix 1
