# General MUST DEFINE VARIABLES mult AND rand USING THE -v FLAG IN COMMAND LINE CALL TO LMPS
units            real
atom_style       full
dimension        3
newton           off
boundary         p p f


# Styles
pair_style       lj/charmm/coul/long 10.0 12.0
pair_modify      shift no mix sixthpower
kspace_style     pppm 1.0e-4
kspace_modify    diff ad 
kspace_modify slab nozforce
bond_style       harmonic
angle_style      harmonic
dihedral_style   charmm
improper_style   harmonic
special_bonds    charmm

# System definition
read_restart perm/restarts/restart.*


dielectric 1.0
neighbor 5.0 bin
neigh_modify delay 0 every 1 check yes
timestep 2.0
run_style verlet

# Set Graphene lattice constant variable for use as pistons and backing layer
variable GRAPHENE_LATTICE_CONST equal 2.46

# Set lattice constant for use in packing waters into feed/permeate
lattice fcc 4.3
variable FinMD_to_FinN equal 6.94768717535204e-11
variable ANG_to_M equal 1e-10
variable ATM_to_nm2 equal 101325
variable mult1d equal ${mult}^(1/3)
variable mult2d equal ${mult}^(2/3)
molecule mol1 ../../molecules/tip3p.mol

## FROM INIT PERM RUN
#Recenter systems based on difference between CoM of pistons and center of domain in z-direction
#displace_atoms all move 0 0 $(-(abs(xcm(LOzwall,z)-xcm(HIzwall,z))/2+xcm(LOzwall,z))) units box

# Fix previously identified pins via a spring in the z direction only 

fix tether PINplane spring/self 427.6 
run 0
change_box all boundary p p f


#delete FEED piston
delete_atoms group LOzwall

#add more water to feed
region FEED block INF INF INF INF $(zlo+10) $(zlo+60) units box
create_atoms 0 region FEED mol mol1 $(322)

#add piston back
lattice hcp ${GRAPHENE_LATTICE_CONST}
region zwallLO block INF INF INF INF $(zlo) $((zlo)+v_GRAPHENE_LATTICE_CONST*.9) units box

create_atoms 17 region zwallLO 
group LOzwall1 type 17
group LOzwall2 region zwallLO
group LOzwall intersect LOzwall1 LOzwall2
group LOzwall1 delete
group LOzwall2 delete

# REMOVE WHEN BOUNDARIES ARE STABLE
change_box all z final -325 325 units box

# MINIMIZE BUT KEEP PISTONS IN place

group graphene type 17

fix setForceMinimize graphene setforce 0 0 0

fix zwalls1 mobile wall/lj126 zlo EDGE 0.06844 3.40700 9 zhi EDGE 0.06844 3.40700 9
fix_modify zwalls1 energy yes

minimize         0 0 100000 1000000
min_style sd
minimize	 0 0 100000 1000000
min_style cg     
minimize         1.0e-8 1.0e-8 20000 1000000
min_style sd
minimize         1.0e-8 1.0e-8 20000 1000000
unfix setForceMinimize

#Pressurize system with pistons
variable APPL_PRESS_FEED equal 8000*${ATM_to_nm2}/count(LOzwall)
variable APPL_PRESS_PERM equal 7000*${ATM_to_nm2}/count(HIzwall)
variable PISTON_AREA equal  ($(xhi)-$(xlo))*($(yhi)-$(ylo))
variable pos_HYDRATE_FORCE equal ${PISTON_AREA}*${ANG_to_M}*${ANG_to_M}*${APPL_PRESS_FEED}/${FinMD_to_FinN}
variable neg_HYDRATE_FORCE equal -${PISTON_AREA}*${ANG_to_M}*${ANG_to_M}*${APPL_PRESS_PERM}/${FinMD_to_FinN}
fix FEEDPISTON LOzwall rigid single torque * off off off force * off off on 
fix PERMPISTON HIzwall rigid single torque * off off off force * off off on 

fix FEEDFORCE LOzwall addforce  0.0 0.0 v_pos_HYDRATE_FORCE
fix PERMFORCE HIzwall addforce  0.0 0.0 v_neg_HYDRATE_FORCE

#Collect sufficient data for morphological analysis
fix balance1 all balance 0 1.0 shift z 10 1.1
compute        peratomstressvol mobile stress/atom NULL 
compute	       peratomstressvolke mobile stress/atom NULL ke 
compute        peratomstressvolkspace mobile stress/atom NULL kspace
compute        peratomstressvolfix mobile stress/atom NULL fix 
compute        peratomvol mobile voronoi/atom

variable       peratompress         atom (c_peratomstressvol[1]+c_peratomstressvol[2]+c_peratomstressvol[3])
variable       peratompresske       atom (c_peratomstressvolke[1]+c_peratomstressvolke[2]+c_peratomstressvolke[3])
variable       peratompresskspace   atom (c_peratomstressvolkspace[1]+c_peratomstressvolkspace[2]+c_peratomstressvolkspace[3])
variable       peratompressfix      atom (c_peratomstressvolfix[1]+c_peratomstressvolfix[2]+c_peratomstressvolfix[3])

dump waterdata WATER custom/gz 10000 perm/water/pressuredata.*.gz id mol type mass q x y z vx vy vz v_peratompress v_peratompresske v_peratompresskspace v_peratompressfix c_peratomstressvol[1] c_peratomstressvol[2] c_peratomstressvol[3] c_peratomstressvolke[1] c_peratomstressvolke[2] c_peratomstressvolke[3] c_peratomstressvolkspace[1] c_peratomstressvolkspace[2] c_peratomstressvolkspace[3] c_peratomstressvolfix[1] c_peratomstressvolfix[2] c_peratomstressvolfix[3] c_peratomvol[1]
dump_modify waterdata sort 2
dump membranedata membrane custom/gz 10000 perm/membrane/membranedata.*.gz id mol type mass q x y z vx vy vz v_peratompress v_peratompresske v_peratompresskspace v_peratompressfix c_peratomstressvol[1] c_peratomstressvol[2] c_peratomstressvol[3] c_peratomstressvolke[1] c_peratomstressvolke[2] c_peratomstressvolke[3] c_peratomstressvolkspace[1] c_peratomstressvolkspace[2] c_peratomstressvolkspace[3] c_peratomstressvolfix[1] c_peratomstressvolfix[2] c_peratomstressvolfix[3] c_peratomvol[1]
dump_modify membranedata sort 1
#dump systemdata all custom/gz 100000 perm/system/systemdata.*.gz id mol type mass q x y z
#dump_modify systemdata sort 1

# Run hydration experiment
reset_atom_ids

restart 50000 perm/restarts/restart.*
neigh_modify exclude type 17 17

fix FXSHAKE mobile shake 0.0001 10 0 b 17 a 22 t 5 8 14
fix 1 mobile nvt temp 300 300 200
thermo 10000
timestep 2.0
run 100000000
unfix 1 


