# General MUST DEFINE VARIABLES mult AND rand USING THE -v FLAG IN COMMAND LINE CALL TO LMPS
units            real
atom_style       full
dimension        3
newton           off
boundary         p p f


# Styles
pair_style       lj/charmm/coul/long 10.0 12.0
pair_modify      shift no mix sixthpower
kspace_style     pppm 1.0e-4
kspace_modify    diff ad 
kspace_modify	 slab nozforce
bond_style       harmonic
angle_style      harmonic
dihedral_style   charmm
improper_style   harmonic
special_bonds    charmm

# System definition
read_restart perm/restarts/restart.*


dielectric 1.0
neighbor 5.0 bin
neigh_modify delay 0 every 1 check yes
timestep 2.0
run_style verlet

# Set Graphene lattice constant variable for use as pistons and backing layer
variable GRAPHENE_LATTICE_CONST equal 2.46

# Set lattice constant for use in packing waters into feed/permeate
lattice fcc 4.3
variable FinMD_to_FinN equal 6.94768717535204e-11
variable ANG_to_M equal 1e-10
variable ATM_to_nm2 equal 101325
variable mult1d equal ${mult}^(1/3)
variable mult2d equal ${mult}^(2/3)

# Fix previously identified pins via a spring in the z direction only 

fix tether PINplane spring/self 427.6 

# REMOVE WHEN BOUNDARIES ARE STABLE
run 0
change_box all boundary p p p
change_box all z final -170 200 units box
kspace_style pppm 1.0e-4
kspace_modify diff ad
fix zwalls1 mobile wall/lj126 zlo -170 0.06844 3.40700 9 zhi 200 0.06844 3.40700 9 pbc yes
fix_modify zwalls1 energy yes

#Pressurize system with pistons
variable APPL_PRESS_FEED equal 4000*${ATM_to_nm2}/count(LOzwall)
variable APPL_PRESS_PERM equal 3200*${ATM_to_nm2}/count(HIzwall)
variable PISTON_AREA equal  ($(xhi)-$(xlo))*($(yhi)-$(ylo))
variable pos_HYDRATE_FORCE equal ${PISTON_AREA}*${ANG_to_M}*${ANG_to_M}*${APPL_PRESS_FEED}/${FinMD_to_FinN}
variable neg_HYDRATE_FORCE equal -${PISTON_AREA}*${ANG_to_M}*${ANG_to_M}*${APPL_PRESS_PERM}/${FinMD_to_FinN}
fix FEEDPISTON LOzwall rigid single torque * off off off force * off off on 
fix PERMPISTON HIzwall rigid single torque * off off off force * off off on 

fix FEEDFORCE LOzwall addforce  0.0 0.0 v_pos_HYDRATE_FORCE
fix PERMFORCE HIzwall addforce  0.0 0.0 v_neg_HYDRATE_FORCE

#Collect sufficient data for morphological analysis
fix balance1 all balance 0 1.0 shift z 10 1.1

neigh_modify exclude type 17 17

fix FXSHAKE mobile shake 0.0001 10 0 b 17 a 22 t 5 8 14
fix 1 mobile nvt temp 300 300 200
thermo 10000
timestep 2.0
run 1000

run 2000 

run 5000 

run 10000
unfix 1 


