# General MUST DEFINE VARIABLES mult AND rand USING THE -v FLAG IN COMMAND LINE CALL TO LMPS
units            real
atom_style       full
dimension        3
newton           on
boundary         p p p


# Styles
pair_style       lj/cut/tip4p/long 1 2 1 1 0.10527 12.2152 12.0
pair_modify      shift no mix arithmetic
kspace_style     pppm/tip4p 1.0e-6
kspace_modify    diff ad
bond_style       harmonic
angle_style      harmonic

#dihedral_style   charmm
#improper_style   harmonic
#special_bonds    charmm

# System definition
read_data ../../molecules/tip4pfb.lmps 

dielectric 1.0
neighbor 4.0 bin
neigh_modify delay 0 every 1 check yes one 4000
timestep 2.0
run_style verlet

region bawks block  INF INF INF INF INF INF units box
delete_atoms region bawks
change_box all x final 0 20 y final 0 20 z final 0 40 units box
lattice fcc 5
region bawks delete
region bawks block  INF INF INF INF INF INF units box
molecule mol1 ../../molecules/tip4pfb.mol
create_atoms 0 region bawks mol mol1 322

variable FinMD_to_FinN equal 6.94768717535204e-11
variable ATM_to_nm2 equal 101325
variable ANG_to_M equal 1e-10

group WATER type 1 2
#minimize         1.0e-6 1.0e-6 10 100000
timestep 2.0

#Collect sufficient data for morphological analysis
compute        peratomstressvol WATER stress/atom NULL 
compute	       peratomstressvolke WATER stress/atom NULL ke 
compute        peratomstressvolkspace WATER stress/atom NULL kspace
compute        peratomstressvolfix WATER stress/atom NULL fix 
compute        peratomvol WATER voronoi/atom

variable       peratompress         atom (c_peratomstressvol[1]+c_peratomstressvol[2]+c_peratomstressvol[3])
variable       peratompresske       atom (c_peratomstressvolke[1]+c_peratomstressvolke[2]+c_peratomstressvolke[3])
variable       peratompresskspace   atom (c_peratomstressvolkspace[1]+c_peratomstressvolkspace[2]+c_peratomstressvolkspace[3])
variable       peratompressfix      atom (c_peratomstressvolfix[1]+c_peratomstressvolfix[2]+c_peratomstressvolfix[3])
compute        totalpressure all reduce sum c_peratomstressvol[1] c_peratomstressvol[2] c_peratomstressvol[3]
compute        totalvolume all reduce sum c_peratomvol[1]

variable press equal -(c_totalpressure[1]+c_totalpressure[2]+c_totalpressure[3])/(3*c_totalvolume)
variable press_domvol equal -(c_totalpressure[1]+c_totalpressure[2]+c_totalpressure[3])/(3*vol)

dump waterdata WATER custom/gz 10000 pressure/pressuredata.*.gz id mol type mass q x y z v_peratompress v_peratompresske v_peratompresskspace v_peratompressfix c_peratomstressvol[1] c_peratomstressvol[2] c_peratomstressvol[3] c_peratomstressvolke[1] c_peratomstressvolke[2] c_peratomstressvolke[3] c_peratomstressvolkspace[1] c_peratomstressvolkspace[2] c_peratomstressvolkspace[3] c_peratomstressvolfix[1] c_peratomstressvolfix[2] c_peratomstressvolfix[3] c_peratomvol[1]
dump_modify waterdata sort 2

#velocity all create 1.0 12345
#run 0                      
#velocity all scale 1.0 

# Run hydration experiment
fix 1 all nvt temp 1 300 200
run 2500
unfix 1

fix 1 all nvt temp 300 300 200
run 2500
unfix 1

restart 10000 restarts/restart.*
write_data test.lmps
thermo_style custom step temp vol press v_press v_press_domvol density 
thermo 10000
fix 1 WATER npt temp 300 300 200 iso 1.0 1.0 2000 
#fix 1 all nvt temp 300 300 200
fix FXSHAKE WATER shake 0.0001 10 0 b 1 a 1 
run 10000000
unfix 1

