# General MUST DEFINE VARIABLES mult AND rand USING THE -v FLAG IN COMMAND LINE CALL TO LMPS
units            real
atom_style       full
dimension        3
newton           on
boundary         p p p


# Styles
pair_style       lj/charmm/coul/long 10.0 12.0
pair_modify      shift no mix arithmetic
kspace_style     pppm 1.0e-4
kspace_modify    diff ad
bond_style       harmonic
angle_style      harmonic
dihedral_style   charmm
improper_style   harmonic
special_bonds    charmm

# System definition
read_data ../../molecules/tip3p.lmps 

dielectric 1.0
neighbor 4.0 bin
neigh_modify delay 0 every 1 check yes one 4000
timestep 2.0
run_style verlet
region bawks block  INF INF INF INF INF INF units box
delete_atoms region bawks
change_box all x final 0 40 y final 0 40 z final 0 80 units box
lattice fcc 4.8
region bawks delete
region bawks block  0 39 0 39 0 79 units box
molecule mol1 ../../molecules/tip3p.mol
create_atoms 0 region bawks mol mol1 322

variable PISTON_AREA equal  (xhi-xlo)*(yhi-ylo)
variable FinMD_to_FinN equal 6.94768717535204e-11
variable ATM_to_nm2 equal 101325
variable ANG_to_M equal 1e-10

group WATER type 15 16
minimize         0 0 2000 100000
timestep 2.0

#Collect sufficient data for morphological analysis
compute        peratomstressvol WATER stress/atom NULL 
compute        peratomvol WATER voronoi/atom

variable       peratompress         atom (c_peratomstressvol[1]+c_peratomstressvol[2]+c_peratomstressvol[3])
compute        totalpressure all reduce sum c_peratomstressvol[1] c_peratomstressvol[2] c_peratomstressvol[3]

dump waterdata WATER custom/gz 5000 water/pressuredata.*.gz id mol type mass q x y z v_peratompress c_peratomvol[1]
dump_modify waterdata sort 2
dump_modify waterdata format 9 %20.15e

region pump block INF INF INF INF $(zlo) $(zlo+3) units box 
group pump_water dynamic WATER region pump
group pump_water include molecule

# Run hydration experiment
restart 10000 restarts/restart.*
thermo_style custom step temp press density 
thermo 5000
fix 1 WATER npt temp 300 300 200 iso 1.0 1.0 2000
fix FXSHAKE WATER shake 0.0001 10 0 b 17 a 22 t 5 8 14
run 1000000
unfix 1



print $(count(pump_water))
variable APPL_PRESS_FEED equal 99*${ATM_to_nm2}/count(pump_water)
variable peratom_pump_force equal ${PISTON_AREA}*${ANG_to_M}*${ANG_to_M}*${APPL_PRESS_FEED}/${FinMD_to_FinN}

fix pump_force pump_water addforce 0.0 0.0 v_peratom_pump_force

thermo_style custom step temp press etotal
thermo 5000
fix 1 WATER nvt temp 300 300 200
run 10000000
unfix 1

