	# General MUST DEFINE VARIABLES mult AND rand USING THE -v FLAG IN COMMAND LINE CALL TO LMPS
units            real
atom_style       full
dimension        3
newton           off
boundary         p p p


# Styles
pair_style       lj/charmm/coul/long 10.0 12.0
pair_modify      shift no mix arithmetic
kspace_style     pppm 1.0e-4
kspace_modify    diff ad
bond_style       harmonic
angle_style      harmonic
dihedral_style   charmm
improper_style   harmonic
special_bonds    charmm

# System definition
read_data ../../molecules/tip3p.lmps 

dielectric 1.0
neighbor 4.0 bin
neigh_modify delay 0 every 1 check yes one 4000
timestep 2.0
run_style verlet

region bawks block  INF INF INF INF INF INF units box
delete_atoms region bawks
change_box all x final 0 39 y final 0 39 z final -145.50322322159545 145.50322322159545 units box
change_box all boundary p p f
kspace_modify slab 3.0
lattice fcc 4.982091
region bawks delete
region bawks block  INF INF INF INF -144 144 units box
molecule mol1 ../../molecules/tip3p.mol
create_atoms 0 region bawks mol mol1 322
variable zLOWALL internal -145.50322322159545
variable zHIWALL internal 145.50322322159545
variable PISTON_AREA equal  (xhi-xlo)*(yhi-ylo)
variable FinMD_to_FinN equal 6.94768717535204e-11
variable ATM_to_nm2 equal 101325
variable ANG_to_M equal 1e-10
group WATER type 15 16

fix zwalls all wall/lj126 zlo v_zLOWALL 0.102 3.188 12 zhi v_zHIWALL 0.102 3.188 12 units box 
fix_modify zwalls energy yes
minimize         1.0e-8 1.0e-8 1000 100000

unfix zwalls
fix zwalls all wall/reflect zlo v_zLOWALL zhi v_zHIWALL units box 

timestep 2.0

#variable press_wall_lo equal -f_zwalls[1]*${FinMD_to_FinN}/(${ATM_to_nm2}*${PISTON_AREA}*${ANG_to_M}*${ANG_to_M})
#variable press_wall_hi equal f_zwalls[2]*${FinMD_to_FinN}/(${ATM_to_nm2}*${PISTON_AREA}*${ANG_to_M}*${ANG_to_M})

#fix loCONTROLLER all controller 10 0.25 0.00000001 0.0000000 0.00000003 v_press_wall_lo 1.00 zLOWALL
#fix hiCONTROLLER all controller 10 -0.25 0.00000001 0.0000000 0.00000003 v_press_wall_hi 1.00 zHIWALL

#Collect sufficient data for morphological analysis
compute        peratomstressvol WATER stress/atom NULL 
compute        peratomvol WATER voronoi/atom

variable       peratompress         atom (c_peratomstressvol[1]+c_peratomstressvol[2]+c_peratomstressvol[3])
compute        totalpressure all reduce sum c_peratomstressvol[1] c_peratomstressvol[2] c_peratomstressvol[3]
dump waterdata WATER custom/gz 1000 water/pressuredata.*.gz id mol type mass q x y z v_peratompress c_peratomvol[1]
dump_modify waterdata sort 2
dump_modify waterdata format 9 %20.15e
velocity all create 300.0 12345
run 0                      
velocity all scale 300.0 
restart 10000 restarts/restart.*
# Run hydration experiment
write_data test.lmps
thermo_style custom step temp press epair emol etotal density
thermo 100
fix 1 all nvt temp 300 300 200
fix FXSHAKE WATER shake 0.0001 10 0 b 17 a 22 t 5 8 14
run 1000000
unfix 1

